webassembly/ejemplos_dzn/folder11_json_94.dzn
TERM = { '.', 'in_1', 'local_0', 's(1)', 's(0)', 'in_0'};
null = '.';
s = 11;
n = 8;
ndeps = 2;
max_registers_sz = 4;
NR = 1;
registers = [|'local_0', 's(1)'|];
dependencies = [|'i32.store_0', 'i32.load8_s_3', |'i32.load8_s_3', 'i32.store8_10'|];
GET_ENUM = { GET1, GET2, GET3, GET4, GET5};
SET_ENUM = { SET1, SET2, SET3, SET4, SET5};
TEE_ENUM = { TEE1, TEE2, TEE3, TEE4, TEE5};
N = 4;
OP = { 'i32.store_0', 'i32.load8_s_3', 'i32.add_0', 'i32.store8_10' };
in_ops = [2, 1, 2, 2 ];
out_ops = [0, 1, 1, 0 ];
in1 = ['in_0', 'local_0', 's(0)', 's(1)' ];
in2 = ['in_1', '.', 's(0)', 'local_0' ];
in3 = ['.', '.', '.', '.' ];
out1 = ['.', 's(0)', 's(1)', '.' ];
out2 = ['.', '.', '.', '.' ];
out3 = ['.', '.', '.', '.' ];
comm = [false, false, true, false ];
gas = [1, 1, 1, 1 ];
sz = [1, 1, 1, 1 ];
stor = [true, false, false, true ];
lb = [ 1, 1, 1, 1 ];
ub = [ 11, 11, 11, 11 ];
startstack = [ 'in_0', 'in_1', null, null, null, null, null, null ];
endstack = [ null, null, null, null, null, null, null, null ];
