webassembly/ejemplos_results/11/folder11_json_94.txt
value = 11;
fgas = [1, 1, 1, 1, 1, 1, 1, 1, 1, 1, 1];
fsize = [1, 1, 1, 1, 1, 1, 1, 1, 1, 1, 1];
states = 
[|    in_0,    in_1, '.', '.', '.', '.', '.',  '.'
 |    in_0,    in_1, '.', '.', '.', '.', '.',  '.'
 |    in_0,    in_1, '.', '.', '.', '.', '.',  '.'
 | local_0, local_0, '.', '.', '.', '.', '.',  '.'
 | local_0, local_0, '.', '.', '.', '.', '.',  '.'
 | local_0,     '.', '.', '.', '.', '.', '.', in_0
 |  's(0)',     '.', '.', '.', '.', '.', '.', in_0
 |  's(1)',  's(0)', '.', '.', '.', '.', '.',  '.'
 |  's(1)', local_0, '.', '.', '.', '.', '.',  '.'
 |  's(1)', local_0, '.', '.', '.', '.', '.',  '.'
 |  's(1)', local_0, '.', '.', '.', '.', '.',  '.'
 |     '.',     '.', '.', '.', '.', '.', '.',  '.'
 |];
register_states = 
[| local_0, '.', '.', '.', '.'
 |    in_0, '.', '.', '.', '.'
 |    in_0, '.', '.', '.', '.'
 |    in_0, '.', '.', '.', '.'
 | local_0, '.', '.', '.', '.'
 | local_0, '.', '.', '.', '.'
 | local_0, '.', '.', '.', '.'
 | local_0, '.', '.', '.', '.'
 | local_0, '.', '.', '.', '.'
 |  's(1)', '.', '.', '.', '.'
 |  's(1)', '.', '.', '.', '.'
 |  's(1)', '.', '.', '.', '.'
 |];
program = [TEE(TEE1), TEE(TEE1), O('i32.store_0'), TEE(TEE1), G(GET1), O('i32.load8_s_3'), O('i32.add_0'), O('i32.add_0'), TEE(TEE1), TEE(TEE1), O('i32.store8_10')];
% time elapsed: 0.15 s
----------
value = 10;
fgas = [1, 1, 1, 1, 1, 1, 1, 1, 1, 1, 0];
fsize = [1, 1, 1, 1, 1, 1, 1, 1, 1, 1, 1];
states = 
[|    in_0,    in_1, '.', '.', '.', '.', '.', '.'
 |  's(0)', local_0, '.', '.', '.', '.', '.', '.'
 | local_0,     '.', '.', '.', '.', '.', '.', '.'
 |  's(0)',     '.', '.', '.', '.', '.', '.', '.'
 |  's(0)',     '.', '.', '.', '.', '.', '.', '.'
 |  's(0)',     '.', '.', '.', '.', '.', '.', '.'
 |  's(0)',     '.', '.', '.', '.', '.', '.', '.'
 |  's(1)', local_0, '.', '.', '.', '.', '.', '.'
 |  's(1)', local_0, '.', '.', '.', '.', '.', '.'
 |  's(1)', local_0, '.', '.', '.', '.', '.', '.'
 |     '.',     '.', '.', '.', '.', '.', '.', '.'
 |     '.',     '.', '.', '.', '.', '.', '.', '.'
 |];
register_states = 
[| local_0, '.', '.', '.', '.'
 | local_0, '.', '.', '.', '.'
 |  's(0)', '.', '.', '.', '.'
 |  's(0)', '.', '.', '.', '.'
 |  's(0)', '.', '.', '.', '.'
 |  's(0)', '.', '.', '.', '.'
 |  's(0)', '.', '.', '.', '.'
 |  's(0)', '.', '.', '.', '.'
 |  's(1)', '.', '.', '.', '.'
 |  's(1)', '.', '.', '.', '.'
 |  's(1)', '.', '.', '.', '.'
 |  's(1)', '.', '.', '.', '.'
 |];
program = [O('i32.store_0'), S(SET1), O('i32.load8_s_3'), TEE(TEE1), TEE(TEE1), TEE(TEE1), O('i32.add_0'), TEE(TEE1), TEE(TEE1), O('i32.store8_10'), NOP];
% time elapsed: 0.16 s
----------
value = 9;
fgas = [1, 1, 1, 1, 1, 1, 1, 1, 1, 0, 0];
fsize = [1, 1, 1, 1, 1, 1, 1, 1, 1, 1, 1];
states = 
[|    in_0,    in_1, '.', '.', '.', '.', '.', '.'
 |    in_0,    in_1, '.', '.', '.', '.', '.', '.'
 |    in_0,    in_1, '.', '.', '.', '.', '.', '.'
 |    in_0,    in_1, '.', '.', '.', '.', '.', '.'
 |    in_0,    in_1, '.', '.', '.', '.', '.', '.'
 | local_0,    in_0, '.', '.', '.', '.', '.', '.'
 |  's(0)',    in_0, '.', '.', '.', '.', '.', '.'
 |  's(1)', local_0, '.', '.', '.', '.', '.', '.'
 |  's(1)', local_0, '.', '.', '.', '.', '.', '.'
 |     '.',     '.', '.', '.', '.', '.', '.', '.'
 |     '.',     '.', '.', '.', '.', '.', '.', '.'
 |     '.',     '.', '.', '.', '.', '.', '.', '.'
 |];
register_states = 
[| local_0, '.', '.', '.', '.'
 |    in_0, '.', '.', '.', '.'
 |    in_0, '.', '.', '.', '.'
 |    in_0, '.', '.', '.', '.'
 |    in_0, '.', '.', '.', '.'
 |    in_0, '.', '.', '.', '.'
 |    in_0, '.', '.', '.', '.'
 |    in_0, '.', '.', '.', '.'
 |  's(1)', '.', '.', '.', '.'
 |  's(1)', '.', '.', '.', '.'
 |  's(1)', '.', '.', '.', '.'
 |  's(1)', '.', '.', '.', '.'
 |];
program = [TEE(TEE1), O('i32.store_0'), O('i32.store_0'), O('i32.store_0'), O('i32.store_0'), O('i32.load8_s_3'), O('i32.add_0'), TEE(TEE1), O('i32.store8_10'), NOP, NOP];
% time elapsed: 0.16 s
----------
value = 8;
fgas = [1, 1, 1, 1, 1, 1, 1, 1, 0, 0, 0];
fsize = [1, 1, 1, 1, 1, 1, 1, 1, 1, 1, 1];
states = 
[|    in_0,    in_1, '.', '.', '.', '.', '.', '.'
 |    in_0,    in_1, '.', '.', '.', '.', '.', '.'
 |    in_0,    in_1, '.', '.', '.', '.', '.', '.'
 |  's(1)', local_0, '.', '.', '.', '.', '.', '.'
 |  's(1)', local_0, '.', '.', '.', '.', '.', '.'
 | local_0,     '.', '.', '.', '.', '.', '.', '.'
 |  's(0)',     '.', '.', '.', '.', '.', '.', '.'
 |  's(1)', local_0, '.', '.', '.', '.', '.', '.'
 |     '.',     '.', '.', '.', '.', '.', '.', '.'
 |     '.',     '.', '.', '.', '.', '.', '.', '.'
 |     '.',     '.', '.', '.', '.', '.', '.', '.'
 |     '.',     '.', '.', '.', '.', '.', '.', '.'
 |];
register_states = 
[| local_0, '.', '.', '.', '.'
 |    in_0, '.', '.', '.', '.'
 |    in_0, '.', '.', '.', '.'
 |    in_0, '.', '.', '.', '.'
 |  's(1)', '.', '.', '.', '.'
 |  's(1)', '.', '.', '.', '.'
 |  's(1)', '.', '.', '.', '.'
 |  's(1)', '.', '.', '.', '.'
 |  's(1)', '.', '.', '.', '.'
 |  's(1)', '.', '.', '.', '.'
 |  's(1)', '.', '.', '.', '.'
 |  's(1)', '.', '.', '.', '.'
 |];
program = [TEE(TEE1), O('i32.store_0'), O('i32.store_0'), TEE(TEE1), S(SET1), O('i32.load8_s_3'), O('i32.add_0'), O('i32.store8_10'), NOP, NOP, NOP];
% time elapsed: 0.17 s
----------
value = 7;
fgas = [1, 1, 1, 1, 1, 1, 1, 0, 0, 0, 0];
fsize = [1, 1, 1, 1, 1, 1, 1, 1, 1, 1, 1];
states = 
[|    in_0,    in_1, '.', '.', '.', '.', '.', '.'
 | local_0,  's(0)', '.', '.', '.', '.', '.', '.'
 | local_0,  's(0)', '.', '.', '.', '.', '.', '.'
 |  's(0)',  's(0)', '.', '.', '.', '.', '.', '.'
 |  's(0)',     '.', '.', '.', '.', '.', '.', '.'
 |  's(1)', local_0, '.', '.', '.', '.', '.', '.'
 |  's(1)', local_0, '.', '.', '.', '.', '.', '.'
 |     '.',     '.', '.', '.', '.', '.', '.', '.'
 |     '.',     '.', '.', '.', '.', '.', '.', '.'
 |     '.',     '.', '.', '.', '.', '.', '.', '.'
 |     '.',     '.', '.', '.', '.', '.', '.', '.'
 |     '.',     '.', '.', '.', '.', '.', '.', '.'
 |];
register_states = 
[| local_0, '.', '.', '.', '.'
 | local_0, '.', '.', '.', '.'
 | local_0, '.', '.', '.', '.'
 | local_0, '.', '.', '.', '.'
 |  's(0)', '.', '.', '.', '.'
 |  's(0)', '.', '.', '.', '.'
 |  's(1)', '.', '.', '.', '.'
 |  's(1)', '.', '.', '.', '.'
 |  's(1)', '.', '.', '.', '.'
 |  's(1)', '.', '.', '.', '.'
 |  's(1)', '.', '.', '.', '.'
 |  's(1)', '.', '.', '.', '.'
 |];
program = [O('i32.store_0'), TEE(TEE1), O('i32.load8_s_3'), S(SET1), O('i32.add_0'), TEE(TEE1), O('i32.store8_10'), NOP, NOP, NOP, NOP];
% time elapsed: 0.17 s
----------
value = 6;
fgas = [1, 1, 1, 1, 1, 1, 0, 0, 0, 0, 0];
fsize = [1, 1, 1, 1, 1, 1, 1, 1, 1, 1, 1];
states = 
[|    in_0,    in_1, '.', '.', '.', '.', '.', '.'
 | local_0,    in_0, '.', '.', '.', '.', '.', '.'
 |  's(0)',    in_0, '.', '.', '.', '.', '.', '.'
 |  's(1)', local_0, '.', '.', '.', '.', '.', '.'
 |  's(1)', local_0, '.', '.', '.', '.', '.', '.'
 |  's(0)',     '.', '.', '.', '.', '.', '.', '.'
 |     '.',     '.', '.', '.', '.', '.', '.', '.'
 |     '.',     '.', '.', '.', '.', '.', '.', '.'
 |     '.',     '.', '.', '.', '.', '.', '.', '.'
 |     '.',     '.', '.', '.', '.', '.', '.', '.'
 |     '.',     '.', '.', '.', '.', '.', '.', '.'
 |     '.',     '.', '.', '.', '.', '.', '.', '.'
 |];
register_states = 
[| local_0, '.', '.', '.', '.'
 | local_0, '.', '.', '.', '.'
 | local_0, '.', '.', '.', '.'
 | local_0, '.', '.', '.', '.'
 |  's(1)', '.', '.', '.', '.'
 |  's(1)', '.', '.', '.', '.'
 |  's(1)', '.', '.', '.', '.'
 |  's(1)', '.', '.', '.', '.'
 |  's(1)', '.', '.', '.', '.'
 |  's(1)', '.', '.', '.', '.'
 |  's(1)', '.', '.', '.', '.'
 |  's(1)', '.', '.', '.', '.'
 |];
program = [O('i32.store_0'), O('i32.load8_s_3'), O('i32.add_0'), TEE(TEE1), O('i32.store8_10'), G(GET4), NOP, NOP, NOP, NOP, NOP];
% time elapsed: 0.17 s
----------
value = 5;
fgas = [1, 1, 1, 1, 1, 0, 0, 0, 0, 0, 0];
fsize = [1, 1, 1, 1, 1, 1, 1, 1, 1, 1, 1];
states = 
[|    in_0,    in_1, '.', '.', '.', '.', '.', '.'
 | local_0,    in_0, '.', '.', '.', '.', '.', '.'
 |  's(0)',    in_0, '.', '.', '.', '.', '.', '.'
 |  's(1)', local_0, '.', '.', '.', '.', '.', '.'
 |  's(1)', local_0, '.', '.', '.', '.', '.', '.'
 |     '.',     '.', '.', '.', '.', '.', '.', '.'
 |     '.',     '.', '.', '.', '.', '.', '.', '.'
 |     '.',     '.', '.', '.', '.', '.', '.', '.'
 |     '.',     '.', '.', '.', '.', '.', '.', '.'
 |     '.',     '.', '.', '.', '.', '.', '.', '.'
 |     '.',     '.', '.', '.', '.', '.', '.', '.'
 |     '.',     '.', '.', '.', '.', '.', '.', '.'
 |];
register_states = 
[| local_0, '.', '.', '.', '.'
 | local_0, '.', '.', '.', '.'
 | local_0, '.', '.', '.', '.'
 | local_0, '.', '.', '.', '.'
 |  's(1)', '.', '.', '.', '.'
 |  's(1)', '.', '.', '.', '.'
 |  's(1)', '.', '.', '.', '.'
 |  's(1)', '.', '.', '.', '.'
 |  's(1)', '.', '.', '.', '.'
 |  's(1)', '.', '.', '.', '.'
 |  's(1)', '.', '.', '.', '.'
 |  's(1)', '.', '.', '.', '.'
 |];
program = [O('i32.store_0'), O('i32.load8_s_3'), O('i32.add_0'), TEE(TEE1), O('i32.store8_10'), NOP, NOP, NOP, NOP, NOP, NOP];
% time elapsed: 0.17 s
----------
==========
% time elapsed: 0.17 s
% [value > 4]
